(declare-fun temp1530_1 () (_ BitVec 64))
(declare-fun temp1530_2 () (_ BitVec 64))
(declare-fun var82795 () (_ BitVec 64))
(declare-fun k!0 () Bool)
(declare-fun ARGNAME_input_NAMEEND_DIM () (_ BitVec 64))
(declare-fun temp1530_3 () (_ BitVec 64))
(declare-fun temp1530_4 () (_ BitVec 64))
(declare-fun ARGNAME_input_NAMEEND_DIMSIZE
             ()
             (Array (_ BitVec 64) (_ BitVec 64)))
(declare-fun temp1530_5 () (_ BitVec 64))
(declare-fun temp1530_6 () (_ BitVec 64))
(declare-fun temp1530_7 () (_ BitVec 64))
(declare-fun temp1530_8 () (_ BitVec 64))
(declare-fun temp1530_9 () (_ BitVec 64))
(declare-fun temp1530_10 () (_ BitVec 64))
(declare-fun temp1530_11 () (_ BitVec 64))
(declare-fun temp1530_12 () (_ BitVec 64))
(declare-fun temp1530_13 () (_ BitVec 64))
(declare-fun temp1530_14 () (_ BitVec 64))
(declare-fun temp1530_15 () (_ BitVec 64))
(declare-fun temp1530_16 () (_ BitVec 64))
(declare-fun temp1530_17 () (_ BitVec 64))
(declare-fun temp1530_18 () (_ BitVec 64))
(declare-fun temp1530_19 () (_ BitVec 64))
(declare-fun temp1530_20 () (_ BitVec 64))
(declare-fun temp1530_21 () (_ BitVec 64))
(declare-fun var82808 () (_ BitVec 64))
(declare-fun temp1530_22 () (_ BitVec 64))
(declare-fun temp1530_23 () (_ BitVec 64))
(declare-fun var82809 () (_ BitVec 64))
(declare-fun temp1530_25 () (_ BitVec 64))
(declare-fun temp1530_24 () (_ BitVec 64))
(declare-fun temp1530_27 () (_ BitVec 64))
(declare-fun temp1530_26 () (_ BitVec 64))
(declare-fun ARGNAME_split_sizes_NAMEEND_LEN () (_ BitVec 64))
(declare-fun var331074 () (_ BitVec 64))
(declare-fun temp1530_28 () (_ BitVec 64))
(declare-fun temp1530_29 () (_ BitVec 64))
(declare-fun var396615 () (_ BitVec 64))
(declare-fun var462162 () (_ BitVec 64))
(declare-fun var265101 () (_ BitVec 64))
(declare-fun temp1530_30 () (_ BitVec 64))
(declare-fun var999067 () (_ BitVec 64))
(declare-fun temp1530_31 () (_ BitVec 64))
(declare-fun var999116 () (_ BitVec 64))
(declare-fun temp1530_32 () (_ BitVec 64))
(declare-fun temp1530_33 () (_ BitVec 64))
(declare-fun var1249866 () (_ BitVec 64))
(declare-fun var1249868 () (_ BitVec 64))
(declare-fun temp1530_34 () (_ BitVec 64))
(declare-fun var1968812 () (_ BitVec 64))
(declare-fun temp1530_35 () (_ BitVec 64))
(declare-fun var2296492 () (_ BitVec 64))
(declare-fun temp1530_36 () (_ BitVec 64))
(declare-fun var2495050 () (_ BitVec 64))
(declare-fun var2495052 () (_ BitVec 64))
(declare-fun temp1530_37 () (_ BitVec 64))
(declare-fun var999233 () (_ BitVec 64))
(declare-fun temp1530_38 () (_ BitVec 64))
(declare-fun temp1530_39 () (_ BitVec 64))
(declare-fun var999297 () (_ BitVec 64))
(declare-fun var999309 () (_ BitVec 64))
(declare-fun temp1530_40 () (_ BitVec 64))
(declare-fun var3607212 () (_ BitVec 64))
(declare-fun temp1530_41 () (_ BitVec 64))
(declare-fun var999321 () (_ BitVec 64))
(declare-fun var999322 () (_ BitVec 64))
(declare-fun var999323 () (_ BitVec 64))
(declare-fun var999324 () (_ BitVec 64))
(declare-fun temp1530_42 () (_ BitVec 64))
(declare-fun var4132738 () (_ BitVec 64))
(declare-fun temp1530_43 () (_ BitVec 64))
(declare-fun var4209308 () (_ BitVec 64))
(declare-fun var4209309 () (_ BitVec 64))
(declare-fun var4209310 () (_ BitVec 64))
(declare-fun var4209312 () (_ BitVec 64))
(declare-fun temp1530_44 () (_ BitVec 64))
(declare-fun temp1530_45 () (_ BitVec 64))
(declare-fun var4924281 () (_ BitVec 64))
(declare-fun var4924285 () (_ BitVec 64))
(declare-fun temp1530_46 () (_ BitVec 64))
(declare-fun temp1530_47 () (_ BitVec 64))
(declare-fun var5710713 () (_ BitVec 64))
(declare-fun var5710717 () (_ BitVec 64))
(declare-fun var4209473 () (_ BitVec 64))
(declare-fun temp1530_49 () (_ BitVec 64))
(declare-fun temp1530_48 () (_ BitVec 64))
(declare-fun var82851 () (_ BitVec 64))
(declare-fun var82852 () (_ BitVec 64))
(declare-fun temp1530_50 () (_ BitVec 64))
(assert (= temp1530_1 #x0000000000000000))
(assert (= var82795
   (ite (= ARGNAME_input_NAMEEND_DIM temp1530_1)
        #x0000000000000001
        #x0000000000000000)))
(assert (= temp1530_2 #x0000000000000000))
(assert (= var82795 temp1530_2))
(assert (= temp1530_3 #x0000000000000000))
(assert (= temp1530_4 temp1530_3))
(assert (= temp1530_5 (select ARGNAME_input_NAMEEND_DIMSIZE temp1530_4)))
(assert (= temp1530_6 #x0000000000000001))
(assert (= temp1530_7 temp1530_6))
(assert (= temp1530_8 (select ARGNAME_input_NAMEEND_DIMSIZE temp1530_7)))
(assert (= temp1530_9 #x0000000000000002))
(assert (= temp1530_10 temp1530_9))
(assert (= temp1530_11 (select ARGNAME_input_NAMEEND_DIMSIZE temp1530_10)))
(assert (= temp1530_12 #x0000000000000003))
(assert (= temp1530_13 temp1530_12))
(assert (= temp1530_14 (select ARGNAME_input_NAMEEND_DIMSIZE temp1530_13)))
(assert (= temp1530_15 #x0000000000000004))
(assert (= temp1530_16 temp1530_15))
(assert (= temp1530_17 (select ARGNAME_input_NAMEEND_DIMSIZE temp1530_16)))
(assert (= temp1530_18 #x0000000000000005))
(assert (= temp1530_19 temp1530_18))
(assert (= temp1530_20 (select ARGNAME_input_NAMEEND_DIMSIZE temp1530_19)))
(assert (= temp1530_21 #x0000000000000000))
(assert (= temp1530_22
   (ite (bvslt var82808 temp1530_21)
        (bvadd ARGNAME_input_NAMEEND_DIM var82808)
        var82808)))
(assert (= temp1530_23 (select ARGNAME_input_NAMEEND_DIMSIZE temp1530_22)))
(assert (= var82809 temp1530_23))
(assert (bvslt (ite (bvslt var82808 temp1530_21)
            (bvadd ARGNAME_input_NAMEEND_DIM var82808)
            var82808)
       ARGNAME_input_NAMEEND_DIM))
(assert (= temp1530_25 #x0000000000000000))
(assert (= temp1530_24 temp1530_25))
(assert (= temp1530_27 #x0000000000000000))
(assert (= temp1530_26 temp1530_27))
(assert (= var331074
   (ite (bvslt temp1530_26 ARGNAME_split_sizes_NAMEEND_LEN)
        #x0000000000000001
        #x0000000000000000)))
(assert (= temp1530_28
   (ite (= var331074 #x0000000000000001)
        ARGNAME_split_sizes_NAMEEND_LEN
        temp1530_26)))
(assert (= temp1530_29 #x0000000000000000))
(assert (= var396615 temp1530_29))
(assert (= var462162 var396615))
(assert (= var265101 var462162))
(assert (= temp1530_30 #x0000000000000001))
(assert (= var999067 temp1530_30))
(assert (= temp1530_31 #x0000000000000000))
(assert (= var999116
   (ite (= ARGNAME_input_NAMEEND_DIM temp1530_31)
        #x0000000000000001
        #x0000000000000000)))
(assert (= temp1530_32 #x0000000000000000))
(assert (= var999116 temp1530_32))
(assert (= temp1530_33 #x0000000000000005))
(assert (= var1249866 temp1530_33))
(assert (= var1249868 var1249866))
(assert (= temp1530_34 #x0000000000000001))
(assert (= var1968812 temp1530_34))
(assert (= temp1530_35 #x0000000000000001))
(assert (= var2296492 temp1530_35))
(assert (= temp1530_36 #x0000000000000005))
(assert (= var2495050 temp1530_36))
(assert (= var2495052 var2495050))
(assert (= temp1530_37 #x0000000000000001))
(assert (= var999233
   (ite (bvslt var999067 temp1530_37) #x0000000000000001 #x0000000000000000)))
(assert (= temp1530_38 #x0000000000000000))
(assert (= var999233 temp1530_38))
(assert (= temp1530_39 #x0000000000000000))
(assert (= var999297 temp1530_39))
(assert (= var999309 var999297))
(assert (= temp1530_40 #x0000000000000002))
(assert (= var3607212 temp1530_40))
(assert (= temp1530_41 #xffffffffffffffff))
(assert (= var999321 (bvxor var999297 temp1530_41)))
(assert (= var999322 (bvadd var999321 var999067)))
(assert (= var999323 (bvadd var999322 var999309)))
(assert (= var999324 (bvsdiv var999323 var999067)))
(assert (= temp1530_42 #x0000000000080000))
(assert (= var4132738 temp1530_42))
(assert (= temp1530_43 #x0000000000000000))
(assert (= var4209308 temp1530_43))
(assert (= var4209309 var999297))
(assert (= var4209310 var999309))
(assert (= var4209312 var999067))
(assert (= temp1530_44 #x0000000000000000))
(assert (= var4209308 temp1530_44))
(assert (= temp1530_45 #x0000000000000000))
(assert (= var4924281 temp1530_45))
(assert (= var4924285 var4209312))
(assert (= temp1530_46 #x0000000000000000))
(assert (= var4209308 temp1530_46))
(assert (= temp1530_47 #x0000000000000000))
(assert (= var5710713 temp1530_47))
(assert (= var5710717 var4209312))
(assert (= var4209473 var4209308))
(assert (= temp1530_49 #x0000000000000000))
(assert (= temp1530_48 temp1530_49))
(assert (= var82851 var82809))
(assert (= var82852
   (ite (= temp1530_24 var82851) #x0000000000000001 #x0000000000000000)))
(assert (= temp1530_50 #x0000000000000001))
(assert (= var82852 temp1530_50))
(model-add temp1530_1 () (_ BitVec 64) #x0000000000000000)
(model-add temp1530_2 () (_ BitVec 64) #x0000000000000000)
(model-add var82795 () (_ BitVec 64) #x0000000000000000)
(model-del k!0)
(model-add ARGNAME_input_NAMEEND_DIM
           ()
           (_ BitVec 64)
           (ite k!0 #x0000000000000000 (bvnot #x0000000000000000)))


